Translating instance to solver...

Set parameter TimeLimit to value 28800
Gurobi Optimizer version 11.0.2 build v11.0.2rc0 (linux64 - "Ubuntu 22.04.4 LTS")

CPU model: Intel(R) Xeon(R) Gold 5120 CPU @ 2.20GHz, instruction set [SSE2|AVX|AVX2|AVX512]
Thread count: 28 physical cores, 56 logical processors, using up to 28 threads

Academic license 2463511 - for non-commercial use only - registered to lu___@cefet-rj.br
Optimize a model with 145385 rows, 68063 columns and 326945 nonzeros
Model fingerprint: 0x0f4ea2f8
Variable types: 1 continuous, 68062 integer (67980 binary)
Coefficient statistics:
  Matrix range     [1e+00, 1e+05]
  Objective range  [3e-01, 8e-01]
  Bounds range     [1e+00, 8e+01]
  RHS range        [1e+00, 8e+01]
Presolve removed 123619 rows and 58773 columns
Presolve time: 3.35s
Presolved: 21766 rows, 9290 columns, 64998 nonzeros
Variable types: 0 continuous, 9290 integer (9209 binary)

Root relaxation: objective 1.223564e+00, 462 iterations, 0.03 seconds (0.03 work units)

    Nodes    |    Current Node    |     Objective Bounds      |     Work
 Expl Unexpl |  Obj  Depth IntInf | Incumbent    BestBd   Gap | It/Node Time

     0     0    1.22356    0   18          -    1.22356      -     -    4s
H    0     0                       1.2235640    1.22356  0.00%     -    4s

Cutting planes:
  Learned: 2
  Gomory: 1
  Cover: 3
  Implied bound: 14
  Clique: 4
  MIR: 13
  StrongCG: 11
  RLT: 2

Explored 1 nodes (1752 simplex iterations) in 4.87 seconds (4.09 work units)
Thread count was 28 (of 56 available processors)

Solution count 1: 1.22356 

Optimal solution found (tolerance 1.00e-04)
Best objective 1.223564000000e+00, best bound 1.223564000000e+00, gap 0.0000%

Solver Wallclock Time (for this epsilon): 4.88559103012085 s
Python wallclock Time (for this epsilon): 15.700973749160767 s


Total Elapsed Time (since program call): 1602.3996255397797 s

Results:

I = 1.223564 mA
C = 10.0 points
C ~= 4.0 km^2

Minimum Epsilon for this instance = 10
Maximum Epsilon for this instance = 100

Current Epsilon = 10


Preprocessing Time (for this epsilon): 0.013067007064819336 s


Updated solution vectors:
sol_I = [-1.223564]
sol_C = [10.0]
sol_eps = [10]
sol_gap = [0.0]
